26018 25439 25087 23811 24124 23604 23217 22766 22223 21436 21414 20499 20404 20231 19849 19040 19317 18798 18467 18170 17895 17737 17512 17014 16981 16767 16533 16425 16261 15912 15677 15570 15358 15156 15157 14903 14821 14672 14675 14508 14420 14201 14181 14119 13967 13994 13905 13879 13589 13488 13329 13366 13216 13079 13025 12976 12851 12685 12605 12516 12521 12406 12268 12282 12215 12163 12069 12066 12049 11945 11907 11942 11902 11889 11903 11845 11871 11863 11650 11624 11607 11527 11512 11451 11421 11423 11406 11394 11452 11424 11400 11436 11364 11358 11360 11349 11353 11368 11340 11304 11247 11354 11323 11245 11172 11166 11145 11144 11116 11152 11121 11089 11051 11052 11051 11014 11016 11033 11003 11043 11042 10963 10955 10904 10975 10885 10949 10916 10890 10896 10904 10881 10918 10884 10860 10882 10867 10878 10890 10860 10752 10879 10851 10774 10726 10868 10778 10709 10681 10795 10737 10672 10680 10659 10698 10686 10618 10591 10580 10557 10527 10437 10402 10364 10294 10290 10251 10213 10143 10101 10046 10013 9971 9930 9891 9828 9781 9702 9617 9578 9504 9483 9439 9407 9379 9315 9274 9218 9201 9177 9135 9119 9072 8997 8947 8905 8859 8827 8798 8780 8760 8740 8717 8687 8661 8641 8573 8559 8546 8520 8481 8432 8404 8357 8306 8254 8223 8208 8162 8146 8096 8073 8036 8021 7987 7948 7928 7908 7886 7884 7865 7848 7814 7806 7789 7769 7730 7708 7686 7663 7645 7626 7621 7610 7597 7575 7553 7537 7521 7514 7509 7489 7471 7457 7434 7417 7387 7378 7369 7357 7343 7334 7312 7305 7282 7256 7247 7233 7225 7210 7205 7191 7190 7186 7176 7165 7155 7144 7132 7118 7108 7095 7084 7079 7062 7055 7039 7019 6962 6952 6942 6935 6913 6899 6863 6857 6807 6796 6794 6785 6781 6776 6767 6766 6757 6750 6740 6727 6718 6697 6690 6681 6667 6653 6637 6622 6607 6599 6588 6584 6559 6552 6540 6533 6505 6494 6478 6468 6463 6454 6450 6427 6418 6414 6412 6409 6405 6402 6397 6389 6389 6382 6373 6373 6373 6363 6355 6352 6318 6308 6300 6291 6282 6277 6270 6258 6254 6252 6250 6249 6244 6232 6231 6231 6225 6215 6213 6208 6179 6175 6162 6158 6158 6158 6153 6152 6149 6140 6133 6109 6098 6090 6088 6086 6083 6080 6079 6079 6068 6044 6043 6021 6007 6005 6002 5983 5982 5979 5978 5941 5922 5914 5910 5897 5890 5887 5884 5882 5881 5878 5869 5866 5863 5863 5857 5856 5850 5847 5840 5838 5837 5836 5826 5824 5823 5823 5822 5820 5819 5818 5816 5813 5804 5802 5802 5799 5797 5795 5792 5791 5789 5789 5788 5787 5787 5783 5778 5777 5769 5769 5766 5765 5763 5761 5759 5759 5756 5753 5749 5744 5739 5736 5728 5726 5726 5725 5725 5715 5715 5712 5710 5707 5698 5695 5695 5684 5683 5667 5666 5666 5661 5660 5660 5654 5653 5652 5652 5651 5651 5650 5640 5640 5638 5636 5636 5634 5634 5623 5623 5619 5619 5617 5615 5611 5611 5611 5606 5606 5606 5606 5606 5600 5600 5600 5600 5595 5594 5594 5593 5593 5592 5591 5591 5590 5590 5587 5587 5587 5585 5585 5584 5584 5583 5581 5581 5581 5580 5578 5574 5573 5568 5567 5567 5567 5566 5563 5561 5553 5549 5549 5548 5546 5545 5545 5545 5543 5539 5539 5503 5503 5489 5489 5489 5489 5489 5489 5488 5484 5484 5483 5481 5481 5462 5460 5460 5455 5454 5448 5441 5441 5438 5438 5438 5436 5433 5433 5432 5432 5428 5426 5426 5426 5420 5420 5418 5418 5418 5416 5415 5415 5415 5415 5406 5404 5404 5395 5395 5395 5395 5394 5394 5394 5394 5387 5387 5387 5387 5387 5387 5384 5383 5383 5363 5360 5360 5360 5360 5360 5358 5358 5358 5358 5357 5357 5344 5343 5343 5341 5341 5341 5336 5335 5301 5301 5301 5296 5291 5291 5286 5286 5286 5286 5286 5286 5283 5283 5283 5283 5283 5282 5282 5282 5282 5282 5282 5282 5282 5282 5282 5282 5279 5279 5279 5279 5279 5279 5279 5279 5279 5279 5279 5279 5279 5279 5279 5279 5279 5279 5279 5279 5279 5279 5278 5278 5278 5278 5278 5278 5278 5278 5278 5278 5278 5278 5278 5278 5278 5278 5276 5276 5276 5276 5276 5276 5273 5273 5273 5273 5273 5273 5273 5267 5267 5267 5267 5267 5267 5267 5267 5267 5267 5267 5267 5267 5267 5267 5267 5267 5267 5267 5267 5266 5266 5266 5266 5255 5255 5255 5253 5246 5246 5246 5246 5246 5246 5246 5246 5246 5239 5239 5234 5234 5234 5234 5234 5233 5233 5233 5233 5233 5233 5233 5233 5230 5230 5229 5229 5228 5228 5228 5228 5228 5216 5216 5214 5214 5214 5214 5193 5193 5193 5193 5176 5173 5167 5167 5167 5155 5153 5148 5132 5111 5111 5110 5110 5110 5110 5110 5110 5110 5110 5110 5110 5110 5110 5110 5109 5104 5102 5096 5096 5096 5096 5095 5088 5088 5087 5087 5087 5087 5086 5086 5086 5085 5084 5083 5082 5074 5073 5073 5073 5070 5070 5070 5069 5069 5067 5066 5065 5055 5043 5043 5043 5043 5043 5043 5043 5043 5043 5042 5042 5042 5042 5042 5042 5042 5042 5041 5041 5037 5036 5036 5036 5036 5036 5036 5036 5036 5036 5036 5036 5034 5034 5034 5034 5034 5034 5034 5034 5026 5026 5026 5026 5024 5024 5024 5022 5021 5021 5020 5018 5018 5017 5016 5016 5016 5016 5016 5016 5016 5016 4999 4999 4998 4998 4998 4998 4998 4995 4995 4995 4995 4995 4995 4995 4995 4995 4995 4995 4995 4995 4995 4995 4995 4995 4995 4995 4995 4995 4995 4995 4995 4995 4995 4995 4995 4995 4995 4995 4994 4994 4994 4994 4994 4994 4994 4994 4993 4993 4993 4993 4993 4991 4991 4991 4991 4991 4991 4991 4991 4991 4991 4991 4989 4989 4987 4987 4987 4986 4986 4986 4986 4986 4984 4984 4984 4984 4984 4973 4973 4973 4973 4973 4970 4970 4970 4970 4970 4969 4969 4966 4966 4966 4965 4965 4965 4965 4965 4965 4965 4965 4965 4965 4965 4965 4965 4965 4965 4965 4965 4965 4965 4965 4965 4965 4965 4965 4965 4965 4965 4965 4965 4965 4965 4965 4965 4965 4965 4965 4960 4960 4960 4960 4960 4960 4960 4960 4960 4960 4960 4960 4960 4960 4960 4960 4960 4960 4960 4960 4960 4960 4960 4960 4960 4960 4960 4960 4960 4960 4960 4960 4960 4960 4960 4960 4960 4960 4960 4960 4960 4960 4960 4960 4960 4960 4959 4959 4959 4959 4959 4959 4958 4958 4958 4958 4958 4958 4958 4958 4944 4944 4944 4944 4944 4944 4944 4944 4941 4941 4941 4941 4941 4941 4941 4941 4941 4941 4941 4941 4941 4941 4941 4941 4941 4941 4941 4941 4941 4941 4941 4941 4941 4941 4941 4941 4941 4941 4941 4941 4941 4941 4941 4941 4941 4941 4941 4941 4941 4941 4941 4941 4941 4941 4941 4941 4941 4940 4940 4940 4940 4940 4940 4940 4940 4940 4940 4940 4940 4940 4940 4940 4940 4940 4940 4940 4940 4940 4940 4940 4940 4940 4940 4940 4940 4940 4940 4940 4940 4940 4940 4940 4940 4940 4940 4940 4940 4940 4940 4940 4940 4940 4940 4940 4940 4940 4940 4940 4940 4940 4940 4940 4940 4940 4940 4940 4940 4940 4940 4940 4940 4940 4940 4940 4940 4940 4940 4940 4940 4940 4940 4940 4940 4940 4940 4940 4940 4940 4940 4940 4940 4940 4940 4940 4940 4940 4940 4940 4940 4940 4940 4940 4940 4940 4940 4940 4940 4940 4940 4940 4940 4940 4940 4940 4940 4940 4940 4940 4940 4940 4940 4940 4940 4940 4940 4940 4940 4940 4940 4940 4940 4940 4940 4940 4940 4940 4940 4940 4940 4940 4940 4940 4940 4940 4940 4940 4940 4940 4940 4940 4940 4940 4940 4940 4940 4940 4940 4940 4940 4940 4940 4940 4940 4940 4940 4940 4940 4940 4940 4940 4940 4940 4940 4940 4940 4940 4940 4940 4940 4940 4940 4940 4940 4940 4940 4940 4940 4940 4940 4940 4940 4940 4940 4940 4940 4940 4940 4940 4940 4940 4940 4940 4940 4940 4940 4940 4940 4940 4940 4940 4940 4940 4940 4940 4940 4940 4940 4940 4940 4940 4940 4940 4940 4940 4940 4940 4940 4940 4940 4940 4940 4940 4940 4940 4940 4940 4940 4940 4940 4940 4940 4940 4940 4940 4940 4940 4940 4940 4940 4940 4940 4940 4940 4940 4940 4940 4940 4940 4940 4940 4940 4940 4940 4940 4940 4940 4940 4940 4940 4940 4940 4940 4940 4940 4940 4940 4940 4940 4940 4940 4940 4940 4940 4940 4940 4940 4940 4940 4940 4940 4940 4940 4940 4940 4940 4940 4940 4940 4940 4940 4940 4940 4940 4940 4940 4940 4940 4940 4940 4940 4940 4940 4940 4940 4940 4940 4940 4940 4940 4940 4940 4940 4940 4940 4940 4940 4940 4940 4940 4940 4940 4940 4940 4940 4940 4940 4940 4940 4940 4940 4940 4940 4940 4940 4940 4940 4940 4940 4940 4940 4940 4940 4940 4940 4940 4940 4940 4940 4940 4940 4940 4940 4940 4940 4940 4940 4940 4940 4940 4940 4940 4940 4940 4940 4940 4940 4940 4940 4940 4940 4940 4940 4940 4940 4940 4940 4940 4940 4940 4940 4940 4940 4940 4940 4940 4940 4940 4940 4940 4940 4940 4940 4940 4940 4940 4940 4940 4940 4940 4940 4940 4940 4940 4940 4940 4940 4940 4940 4940 4940 4940 4940 4940 4940 4940 4940 4940 4940 4940 4940 4940 4940 4940 4940 4940 4940 4940 4940 4940 4940 4940 4940 4940 4940 4940 4940 4940 4940 4940 4940 4940 4940 4940 4940 4940 4940 4940 4940 4940 4940 4940 4940 4940 4940 4940 4940 4940 4940 4940 4940 4940 4940 4940 4940 4940 4940 4940 4940 4940 4940 4940 4940 4940 4940 4940 4940 4940 4940 4940 4940 4940 4940 4940 4940 4940 4940 4940 4940 4940 4940 4940 4940 4940 4940 4940 4940 4940 4940 
16191 15467 14644 14195 13754 13475 12803 12371 11913 11286 10893 10215 10000 9632 9095 8659 8355 8005 7759 7308 7045 6676 6620 6121 5962 5715 5560 5489 5254 5044 4932 4742 4619 4418 4262 4151 4055 3861 3808 3658 3569 3424 3305 3215 3123 3058 2986 2871 2777 2663 2558 2455 2350 2288 2223 2173 2092 2026 1963 1909 1849 1775 1710 1643 1601 1571 1526 1475 1458 1425 1387 1352 1333 1301 1277 1236 1202 1173 1122 1092 1015 988 933 870 852 823 797 785 750 732 703 684 665 659 637 612 604 578 561 548 534 525 471 452 417 417 404 397 387 367 352 333 321 286 275 266 252 242 235 208 201 188 181 170 151 140 130 130 123 113 111 103 101 99 97 93 93 89 85 79 78 75 73 72 72 70 69 69 69 68 67 65 64 64 33 21 21 20 20 20 0 0 0 0 0 0 0 0 0 0 0 0 0 0 0 0 0 0 0 0 0 0 0 0 0 0 0 0 0 0 0 0 0 0 0 0 0 0 0 0 0 0 0 0 0 0 0 0 0 0 0 0 0 0 0 0 0 0 0 0 0 0 0 0 0 0 0 0 0 0 0 0 0 0 0 0 0 0 0 0 0 0 0 0 0 0 0 0 0 0 0 0 0 0 0 0 0 0 0 0 0 0 0 0 0 0 0 0 0 0 0 0 0 0 0 0 0 0 0 0 0 0 0 0 0 0 0 0 0 0 0 0 0 0 0 0 0 0 0 0 0 0 0 0 0 0 0 0 0 0 0 0 0 0 0 0 0 0 0 0 0 0 0 0 0 0 0 0 0 0 0 0 0 0 0 0 0 0 0 0 0 0 0 0 0 0 0 0 0 0 0 0 0 0 0 0 0 0 0 0 0 0 0 0 0 0 0 0 0 0 0 0 0 0 0 0 0 0 0 0 0 0 0 0 0 0 0 0 0 0 0 0 0 0 0 0 0 0 0 0 0 0 0 0 0 0 0 0 0 0 0 0 0 0 0 0 0 0 0 0 0 0 0 0 0 0 0 0 0 0 0 0 0 0 0 0 0 0 0 0 0 0 0 0 0 0 0 0 0 0 0 0 0 0 0 0 0 0 0 0 0 0 0 0 0 0 0 0 0 0 0 0 0 0 0 0 0 0 0 0 0 0 0 0 0 0 0 0 0 0 0 0 0 0 0 0 0 0 0 0 0 0 0 0 0 0 0 0 0 0 0 0 0 0 0 0 0 0 0 0 0 0 0 0 0 0 0 0 0 0 0 0 0 0 0 0 0 0 0 0 0 0 0 0 0 0 0 0 0 0 0 0 0 0 0 0 0 0 0 0 0 0 0 0 0 0 0 0 0 0 0 0 0 0 0 0 0 0 0 0 0 0 0 0 0 0 0 0 0 0 0 0 0 0 0 0 0 0 0 0 0 0 0 0 0 0 0 0 0 0 0 0 0 0 0 0 0 0 0 0 0 0 0 0 0 0 0 0 0 0 0 0 0 0 0 0 0 0 0 0 0 0 0 0 0 0 0 0 0 0 0 0 0 0 0 0 0 0 0 0 0 0 0 0 0 0 0 0 0 0 0 0 0 0 0 0 0 0 0 0 0 0 0 0 0 0 0 0 0 0 0 0 0 0 0 0 0 0 0 0 0 0 0 0 0 0 0 0 0 0 0 0 0 0 0 0 0 0 0 0 0 0 0 0 0 0 0 0 0 0 0 0 0 0 0 0 0 0 0 0 0 0 0 0 0 0 0 0 0 0 0 0 0 0 0 0 0 0 0 0 0 0 0 0 0 0 0 0 0 0 0 0 0 0 0 0 0 0 0 0 0 0 0 0 0 0 0 0 0 0 0 0 0 0 0 0 0 0 0 0 0 0 0 0 0 0 0 0 0 0 0 0 0 0 0 0 0 0 0 0 0 0 0 0 0 0 0 0 0 0 0 0 0 0 0 0 0 0 0 0 0 0 0 0 0 0 0 0 0 0 0 0 0 0 0 0 0 0 0 0 0 0 0 0 0 0 0 0 0 0 0 0 0 0 0 0 0 0 0 0 0 0 0 0 0 0 0 0 0 0 0 0 0 0 0 0 0 0 0 0 0 0 0 0 0 0 0 0 0 0 0 0 0 0 0 0 0 0 0 0 0 0 0 0 0 0 0 0 0 0 0 0 0 0 0 0 0 0 0 0 0 0 0 0 0 0 0 0 0 0 0 0 0 0 0 0 0 0 0 0 0 0 0 0 0 0 0 0 0 0 0 0 0 0 0 0 0 0 0 0 0 0 0 0 0 0 0 0 0 0 0 0 0 0 0 0 0 0 0 0 0 0 0 0 0 0 0 0 0 0 0 0 0 0 0 0 0 0 0 0 0 0 0 0 0 0 0 0 0 0 0 0 0 0 0 0 0 0 0 0 0 0 0 0 0 0 0 0 0 0 0 0 0 0 0 0 0 0 0 0 0 0 0 0 0 0 0 0 0 0 0 0 0 0 0 0 0 0 0 0 0 0 0 0 0 0 0 0 0 0 0 0 0 0 0 0 0 0 0 0 0 0 0 0 0 0 0 0 0 0 0 0 0 0 0 0 0 0 0 0 0 0 0 0 0 0 0 0 0 0 0 0 0 0 0 0 0 0 0 0 0 0 0 0 0 0 0 0 0 0 0 0 0 0 0 0 0 0 0 0 0 0 0 0 0 0 0 0 0 0 0 0 0 0 0 0 0 0 0 0 0 0 0 0 0 0 0 0 0 0 0 0 0 0 0 0 0 0 0 0 0 0 0 0 0 0 0 0 0 0 0 0 0 0 0 0 0 0 0 0 0 0 0 0 0 0 0 0 0 0 0 0 0 0 0 0 0 0 0 0 0 0 0 0 0 0 0 0 0 0 0 0 0 0 0 0 0 0 0 0 0 0 0 0 0 0 0 0 0 0 0 0 0 0 0 0 0 0 0 0 0 0 0 0 0 0 0 0 0 0 0 0 0 0 0 0 0 0 0 0 0 0 0 0 0 0 0 0 0 0 0 0 0 0 0 0 0 0 0 0 0 0 0 0 0 0 0 0 0 0 0 0 0 0 0 0 0 0 0 0 0 0 0 0 0 0 0 0 0 0 0 0 0 0 0 0 0 0 0 0 0 0 0 0 0 0 0 0 0 0 0 0 0 0 0 0 0 0 0 0 0 0 0 0 0 0 0 0 0 0 0 0 0 0 0 0 0 0 0 0 0 0 0 0 0 0 0 0 0 0 0 0 0 0 0 0 0 0 0 0 0 0 0 0 0 0 0 0 0 0 0 0 0 0 0 0 0 0 0 0 0 0 0 0 0 0 0 0 0 0 0 0 0 0 0 0 0 0 0 0 0 0 0 0 0 0 0 0 0 0 0 0 0 0 0 0 0 0 0 0 0 0 0 0 0 0 0 0 0 0 0 0 0 0 0 0 0 0 0 0 0 0 0 0 0 0 0 0 0 0 0 0 0 0 0 0 0 0 0 0 0 0 0 0 0 0 0 0 0 0 0 0 0 0 0 0 0 0 0 0 0 0 0 0 0 0 0 0 0 0 0 0 0 0 0 0 0 0 0 0 0 0 0 0 0 0 0 0 0 0 0 0 0 0 0 0 0 0 0 0 0 0 0 0 0 0 0 0 0 0 0 0 0 0 0 0 0 0 0 0 0 0 0 0 0 0 0 0 0 0 0 0 0 0 0 0 0 0 0 0 0 0 0 0 0 0 0 0 0 0 0 0 0 0 0 0 0 0 0 0 0 0 0 0 0 0 0 0 0 0 0 0 0 0 0 0 0 